c SAT Generator for power-law distributed variable frequencies
c -g u -v 20 -c 91 -k 3 -p 2.750000 -b 3.200000 -f /home/schmidt/Devel/ni-kop-sat/data/ensemble/ruf20-91/ruf20-91-330 -u 1 -U 1 -s 1787301501
p cnf 20 91
2 -4 9 0
11 -13 19 0
-10 -15 16 0
-2 -4 9 0
-6 12 17 0
-1 10 11 0
-13 18 20 0
-1 8 -20 0
12 13 15 0
4 -15 -17 0
-12 19 20 0
-1 6 -15 0
7 -15 19 0
10 -16 17 0
6 13 -14 0
-1 -17 -19 0
-2 3 11 0
6 10 13 0
-10 13 -20 0
-2 4 -16 0
6 10 15 0
1 3 4 0
-2 -10 -13 0
3 18 -19 0
-6 7 14 0
3 4 14 0
4 -15 -19 0
7 -18 -20 0
5 -7 -11 0
-6 9 -19 0
2 -9 -16 0
3 -12 17 0
10 -15 -20 0
-5 -13 14 0
4 -5 -19 0
2 -10 -12 0
-3 9 -11 0
-1 -9 -12 0
2 -15 -19 0
2 15 18 0
-6 -9 -20 0
5 -11 18 0
6 9 17 0
-12 -14 17 0
-6 -16 20 0
-4 5 -15 0
10 -12 -20 0
-3 -11 -16 0
-2 6 11 0
10 11 -14 0
7 14 -18 0
-3 -4 15 0
-5 10 -15 0
1 6 8 0
4 9 11 0
-2 -4 -15 0
-2 9 -12 0
4 10 -14 0
7 -12 20 0
3 -15 16 0
-3 13 19 0
5 -7 19 0
5 -6 -7 0
7 8 11 0
-3 -14 17 0
8 -9 14 0
3 5 -14 0
-4 -7 10 0
8 -9 -20 0
-2 -14 -15 0
-5 6 17 0
-3 -7 14 0
-13 -17 19 0
-2 -9 -16 0
-3 -17 20 0
-10 11 17 0
-8 -10 20 0
-4 -8 -13 0
-13 15 -16 0
-2 -12 -16 0
10 -18 -19 0
11 -14 17 0
4 13 -16 0
-4 16 18 0
3 13 14 0
-9 -11 -17 0
-13 17 -20 0
1 4 6 0
-2 -4 20 0
9 -19 20 0
10 -12 -18 0
